results_rootrelaxation/bin012_090_036.srr.sol
solution status: optimal solution found
objective value:                                 33.5
_var236_                                         0.25 	(obj:4)
_var790_                                        0.375 	(obj:4)
_var792_                                          0.5 	(obj:2)
_var800_                                       0.1875 	(obj:4)
_var820_                                        0.375 	(obj:5)
_var826_                                        0.125 	(obj:4)
_var832_                                       0.1875 	(obj:3)
_var834_                                       0.0625 	(obj:4)
_var838_                                            1 	(obj:1)
_var846_                                          0.5 	(obj:1)
_var850_                                          0.5 	(obj:4)
_var862_                                          0.5 	(obj:2)
_var867_                                        0.125 	(obj:4)
_var868_                                          0.5 	(obj:1)
_var870_                                        0.375 	(obj:3)
_var877_                                          0.5 	(obj:4)
_var878_                                       0.0625 	(obj:4)
_var881_                                       0.0625 	(obj:4)
_var885_                                        0.375 	(obj:4)
_var887_                                        0.625 	(obj:3)
_var889_                                        0.125 	(obj:4)
_var894_                                          0.5 	(obj:3)
_var901_                                          0.5 	(obj:2)
_var903_                                          0.5 	(obj:4)
_var904_                                       0.3125 	(obj:3)
_var905_                                        0.375 	(obj:5)
_var907_                                       0.1875 	(obj:4)
_var908_                                       0.1875 	(obj:3)
_var913_                                       0.1875 	(obj:3)
_var914_                                       0.3125 	(obj:4)
_var916_                                        0.125 	(obj:4)
_var920_                                        0.125 	(obj:5)
_var923_                                       0.0625 	(obj:4)
_var928_                                       0.0625 	(obj:4)
_var929_                                        0.125 	(obj:5)
_var933_                                        0.125 	(obj:3)
