results_rootrelaxation/bin012_090_036.srr.log
SCIP version 8.0.3.5 [precision: 8 byte] [memory: block] [mode: optimized] [LP solver: Soplex 6.0.1.3] [GitHash: 438792519e]
Copyright (c) 2002-2023 Zuse Institute Berlin (ZIB)

External libraries: 
  Readline 8.1         GNU library for command line editing (gnu.org/s/readline)
  Soplex 6.0.1.3       Linear Programming Solver developed at Zuse Institute Berlin (soplex.zib.de) [GitHash: 713be0fe]
  CppAD 20180000.0     Algorithmic Differentiation of C++ algorithms developed by B. Bell (github.com/coin-or/CppAD)
  ZLIB 1.2.11          General purpose compression library by J. Gailly and M. Adler (zlib.net)
  bliss 0.77           Computing Graph Automorphism Groups by T. Junttila and P. Kaski (www.tcs.hut.fi/Software/bliss/)

user parameter file <scip.set> not found - using default parameters

srr/relaxation = TRUE

read problem <instances/bin012_090_036.srr>
============

Original problem: 
original problem has 0 variables (0 bin, 0 int, 0 impl, 0 cont) and 77 constraints

presolving:
presolving (1 rounds: 1 fast, 1 medium, 1 exhaustive):
 0 deleted vars, 0 deleted constraints, 0 added constraints, 0 tightened bounds, 0 added holes, 0 changed sides, 0 changed coefficients
 0 implications, 0 cliques
presolved problem has 0 variables (0 bin, 0 int, 0 impl, 0 cont) and 77 constraints
     77 constraints of type <linear>
Presolving Time: 0.00

 time | node  | left  |LP iter|LP it/n|mem/heur|mdpt |vars |cons |rows |cuts |sepa|confs|strbr|  dualbound   | primalbound  |  gap   | compl. 
  0.0s|     1 |     0 |     1 |     - |   710k |   0 |   1 |  77 |  77 |   0 |  0 |   0 |   0 |      --      |      --      |    Inf | unknown
r 0.0s|     1 |     0 |  1042 |     - |simplero|   0 | 716 |  77 |  77 |   0 |  0 |   0 |   0 |      --      | 4.611201e+01 |    Inf | unknown
r 0.0s|     1 |     0 |  1087 |     - |simplero|   0 | 727 |  77 |  77 |   0 |  0 |   0 |   0 |      --      | 4.502124e+01 |    Inf | unknown
r 0.1s|     1 |     0 |  1120 |     - |simplero|   0 | 738 |  77 |  77 |   0 |  0 |   0 |   0 |      --      | 4.413115e+01 |    Inf | unknown
r 0.1s|     1 |     0 |  1155 |     - |simplero|   0 | 749 |  77 |  77 |   0 |  0 |   0 |   0 |      --      | 4.267561e+01 |    Inf | unknown
r 0.1s|     1 |     0 |  1160 |     - |simplero|   0 | 749 |  77 |  77 |   0 |  0 |   0 |   0 |      --      | 4.262428e+01 |    Inf | unknown
r 0.1s|     1 |     0 |  1191 |     - |simplero|   0 | 760 |  77 |  77 |   0 |  0 |   0 |   0 |      --      | 4.198883e+01 |    Inf | unknown
r 0.1s|     1 |     0 |  1231 |     - |simplero|   0 | 771 |  77 |  77 |   0 |  0 |   0 |   0 |      --      | 4.099799e+01 |    Inf | unknown
r 0.1s|     1 |     0 |  1247 |     - |simplero|   0 | 771 |  77 |  77 |   0 |  0 |   0 |   0 |      --      | 4.091231e+01 |    Inf | unknown
r 0.1s|     1 |     0 |  1297 |     - |simplero|   0 | 782 |  77 |  77 |   0 |  0 |   0 |   0 |      --      | 4.023963e+01 |    Inf | unknown
r 0.1s|     1 |     0 |  1364 |     - |simplero|   0 | 793 |  77 |  77 |   0 |  0 |   0 |   0 |      --      | 3.913820e+01 |    Inf | unknown
r 0.1s|     1 |     0 |  1381 |     - |simplero|   0 | 793 |  77 |  77 |   0 |  0 |   0 |   0 |      --      | 3.894256e+01 |    Inf | unknown
r 0.1s|     1 |     0 |  1384 |     - |simplero|   0 | 793 |  77 |  77 |   0 |  0 |   0 |   0 |      --      | 3.894016e+01 |    Inf | unknown
r 0.1s|     1 |     0 |  1385 |     - |simplero|   0 | 793 |  77 |  77 |   0 |  0 |   0 |   0 |      --      | 3.894016e+01 |    Inf | unknown
r 0.1s|     1 |     0 |  1449 |     - |simplero|   0 | 804 |  77 |  77 |   0 |  0 |   0 |   0 |      --      | 3.824309e+01 |    Inf | unknown
 time | node  | left  |LP iter|LP it/n|mem/heur|mdpt |vars |cons |rows |cuts |sepa|confs|strbr|  dualbound   | primalbound  |  gap   | compl. 
r 0.1s|     1 |     0 |  1470 |     - |simplero|   0 | 804 |  77 |  77 |   0 |  0 |   0 |   0 |      --      | 3.803332e+01 |    Inf | unknown
r 0.1s|     1 |     0 |  1479 |     - |simplero|   0 | 804 |  77 |  77 |   0 |  0 |   0 |   0 |      --      | 3.800027e+01 |    Inf | unknown
r 0.1s|     1 |     0 |  1482 |     - |simplero|   0 | 804 |  77 |  77 |   0 |  0 |   0 |   0 |      --      | 3.799565e+01 |    Inf | unknown
r 0.1s|     1 |     0 |  1514 |     - |simplero|   0 | 815 |  77 |  77 |   0 |  0 |   0 |   0 |      --      | 3.750280e+01 |    Inf | unknown
r 0.1s|     1 |     0 |  1538 |     - |simplero|   0 | 815 |  77 |  77 |   0 |  0 |   0 |   0 |      --      | 3.731143e+01 |    Inf | unknown
r 0.1s|     1 |     0 |  1578 |     - |simplero|   0 | 826 |  77 |  77 |   0 |  0 |   0 |   0 |      --      | 3.685925e+01 |    Inf | unknown
r 0.1s|     1 |     0 |  1596 |     - |simplero|   0 | 826 |  77 |  77 |   0 |  0 |   0 |   0 |      --      | 3.678430e+01 |    Inf | unknown
r 0.1s|     1 |     0 |  1607 |     - |simplero|   0 | 826 |  77 |  77 |   0 |  0 |   0 |   0 |      --      | 3.674798e+01 |    Inf | unknown
r 0.1s|     1 |     0 |  1660 |     - |simplero|   0 | 837 |  77 |  77 |   0 |  0 |   0 |   0 |      --      | 3.597261e+01 |    Inf | unknown
r 0.1s|     1 |     0 |  1669 |     - |simplero|   0 | 837 |  77 |  77 |   0 |  0 |   0 |   0 |      --      | 3.595887e+01 |    Inf | unknown
r 0.1s|     1 |     0 |  1672 |     - |simplero|   0 | 837 |  77 |  77 |   0 |  0 |   0 |   0 |      --      | 3.595525e+01 |    Inf | unknown
  0.1s|     1 |     0 |  1715 |     - |  4164k |   0 | 848 |  77 |  77 |   0 |  0 |   0 |   0 |      --      | 3.595525e+01 |    Inf | unknown
r 0.1s|     1 |     0 |  1715 |     - |simplero|   0 | 848 |  77 |  77 |   0 |  0 |   0 |   0 |      --      | 3.526351e+01 |    Inf | unknown
r 0.1s|     1 |     0 |  1729 |     - |simplero|   0 | 848 |  77 |  77 |   0 |  0 |   0 |   0 |      --      | 3.518750e+01 |    Inf | unknown
r 0.1s|     1 |     0 |  1744 |     - |simplero|   0 | 848 |  77 |  77 |   0 |  0 |   0 |   0 |      --      | 3.517615e+01 |    Inf | unknown
 time | node  | left  |LP iter|LP it/n|mem/heur|mdpt |vars |cons |rows |cuts |sepa|confs|strbr|  dualbound   | primalbound  |  gap   | compl. 
r 0.1s|     1 |     0 |  1778 |     - |simplero|   0 | 859 |  77 |  77 |   0 |  0 |   0 |   0 |      --      | 3.488858e+01 |    Inf | unknown
r 0.1s|     1 |     0 |  1785 |     - |simplero|   0 | 859 |  77 |  77 |   0 |  0 |   0 |   0 |      --      | 3.487274e+01 |    Inf | unknown
r 0.1s|     1 |     0 |  1814 |     - |simplero|   0 | 870 |  77 |  77 |   0 |  0 |   0 |   0 |      --      | 3.458560e+01 |    Inf | unknown
r 0.1s|     1 |     0 |  1850 |     - |simplero|   0 | 881 |  77 |  77 |   0 |  0 |   0 |   0 |      --      | 3.416044e+01 |    Inf | unknown
r 0.1s|     1 |     0 |  1853 |     - |simplero|   0 | 881 |  77 |  77 |   0 |  0 |   0 |   0 |      --      | 3.415563e+01 |    Inf | unknown
r 0.1s|     1 |     0 |  1855 |     - |simplero|   0 | 881 |  77 |  77 |   0 |  0 |   0 |   0 |      --      | 3.415501e+01 |    Inf | unknown
r 0.1s|     1 |     0 |  1901 |     - |simplero|   0 | 891 |  77 |  77 |   0 |  0 |   0 |   0 |      --      | 3.391226e+01 |    Inf | unknown
r 0.1s|     1 |     0 |  1902 |     - |simplero|   0 | 891 |  77 |  77 |   0 |  0 |   0 |   0 |      --      | 3.391212e+01 |    Inf | unknown
r 0.1s|     1 |     0 |  1939 |     - |simplero|   0 | 902 |  77 |  77 |   0 |  0 |   0 |   0 |      --      | 3.380000e+01 |    Inf | unknown
r 0.1s|     1 |     0 |  1963 |     - |simplero|   0 | 908 |  77 |  77 |   0 |  0 |   0 |   0 |      --      | 3.370823e+01 |    Inf | unknown
r 0.1s|     1 |     0 |  1987 |     - |simplero|   0 | 916 |  77 |  77 |   0 |  0 |   0 |   0 |      --      | 3.358973e+01 |    Inf | unknown
r 0.1s|     1 |     0 |  2012 |     - |simplero|   0 | 925 |  77 |  77 |   0 |  0 |   0 |   0 |      --      | 3.352482e+01 |    Inf | unknown
r 0.1s|     1 |     0 |  2030 |     - |simplero|   0 | 933 |  77 |  77 |   0 |  0 |   0 |   0 |      --      | 3.351567e+01 |    Inf | unknown
r 0.1s|     1 |     0 |  2037 |     - |simplero|   0 | 933 |  77 |  77 |   0 |  0 |   0 |   0 |      --      | 3.351471e+01 |    Inf | unknown
r 0.1s|     1 |     0 |  2051 |     - |simplero|   0 | 940 |  77 |  77 |   0 |  0 |   0 |   0 |      --      | 3.350000e+01 |    Inf | unknown
 time | node  | left  |LP iter|LP it/n|mem/heur|mdpt |vars |cons |rows |cuts |sepa|confs|strbr|  dualbound   | primalbound  |  gap   | compl. 
  0.1s|     1 |     0 |  2051 |     - |  4479k |   0 | 940 |  77 |  77 |   0 |  0 |   0 |   0 | 3.350000e+01 | 3.350000e+01 |   0.00%| unknown
  0.1s|     1 |     0 |  2051 |     - |  4479k |   0 | 940 |  77 |  77 |   0 |  0 |   0 |   0 | 3.350000e+01 | 3.350000e+01 |   0.00%| unknown

SCIP Status        : problem is solved [optimal solution found]
Solving Time (sec) : 0.10
Solving Nodes      : 1
Primal Bound       : +3.35000000000000e+01 (43 solutions)
Dual Bound         : +3.35000000000000e+01
Gap                : 0.00 %

written transformed problem to file <results_rootrelaxation/bin012_090_036.srr.lp>
written transformed problem to file <results_rootrelaxation/bin012_090_036.srr.cip>

written solution information to file <results_rootrelaxation/bin012_090_036.srr.sol>



